objective value:                                   -6
t_n_13                                              1 	(obj:-1)
t_n_326                                             1 	(obj:-1)
t_n_527                                             1 	(obj:-1)
t_n_646                                             1 	(obj:-1)
t_n_1446                                            1 	(obj:-1)
t_n_1737                                            1 	(obj:-1)
